(set-logic ALL)
(declare-const output String)
(assert (not (< (str.len output) 0)))
(assert (not (= (+ 0 (str.indexof output "\n" 0)) (- 1))))
(assert (not (< (+ 0 (str.indexof output "\n" 0)) 0)))
(assert (not (< (+ (+ 0 (str.indexof output "\n" 0)) 1) 0)))
(assert (not (< (str.len output) 0)))
(assert (not (< (str.len (str.substr output (+ (+ 0 (str.indexof output "\n" 0)) 1) (- (str.len output) (+ (+ 0 (str.indexof output "\n" 0)) 1)))) 0)))
(assert (not (= (+ 0 (str.indexof (str.substr output (+ (+ 0 (str.indexof output "\n" 0)) 1) (- (str.len output) (+ (+ 0 (str.indexof output "\n" 0)) 1))) "\n" 0)) (- 1))))
(assert (not (< (+ 0 (str.indexof (str.substr output (+ (+ 0 (str.indexof output "\n" 0)) 1) (- (str.len output) (+ (+ 0 (str.indexof output "\n" 0)) 1))) "\n" 0)) 0)))
(assert (not (< (+ (+ 0 (str.indexof (str.substr output (+ (+ 0 (str.indexof output "\n" 0)) 1) (- (str.len output) (+ (+ 0 (str.indexof output "\n" 0)) 1))) "\n" 0)) 1) 0)))
(assert (not (< (str.len (str.substr output (+ (+ 0 (str.indexof output "\n" 0)) 1) (- (str.len output) (+ (+ 0 (str.indexof output "\n" 0)) 1)))) 0)))
(assert (not (< (str.len (str.substr (str.substr output (+ (+ 0 (str.indexof output "\n" 0)) 1) (- (str.len output) (+ (+ 0 (str.indexof output "\n" 0)) 1))) (+ (+ 0 (str.indexof (str.substr output (+ (+ 0 (str.indexof output "\n" 0)) 1) (- (str.len output) (+ (+ 0 (str.indexof output "\n" 0)) 1))) "\n" 0)) 1) (- (str.len (str.substr output (+ (+ 0 (str.indexof output "\n" 0)) 1) (- (str.len output) (+ (+ 0 (str.indexof output "\n" 0)) 1)))) (+ (+ 0 (str.indexof (str.substr output (+ (+ 0 (str.indexof output "\n" 0)) 1) (- (str.len output) (+ (+ 0 (str.indexof output "\n" 0)) 1))) "\n" 0)) 1)))) 0)))
(assert (not (= (+ 0 (str.indexof (str.substr (str.substr output (+ (+ 0 (str.indexof output "\n" 0)) 1) (- (str.len output) (+ (+ 0 (str.indexof output "\n" 0)) 1))) (+ (+ 0 (str.indexof (str.substr output (+ (+ 0 (str.indexof output "\n" 0)) 1) (- (str.len output) (+ (+ 0 (str.indexof output "\n" 0)) 1))) "\n" 0)) 1) (- (str.len (str.substr output (+ (+ 0 (str.indexof output "\n" 0)) 1) (- (str.len output) (+ (+ 0 (str.indexof output "\n" 0)) 1)))) (+ (+ 0 (str.indexof (str.substr output (+ (+ 0 (str.indexof output "\n" 0)) 1) (- (str.len output) (+ (+ 0 (str.indexof output "\n" 0)) 1))) "\n" 0)) 1))) "\n" 0)) (- 1))))
(assert (not (< (+ 0 (str.indexof (str.substr (str.substr output (+ (+ 0 (str.indexof output "\n" 0)) 1) (- (str.len output) (+ (+ 0 (str.indexof output "\n" 0)) 1))) (+ (+ 0 (str.indexof (str.substr output (+ (+ 0 (str.indexof output "\n" 0)) 1) (- (str.len output) (+ (+ 0 (str.indexof output "\n" 0)) 1))) "\n" 0)) 1) (- (str.len (str.substr output (+ (+ 0 (str.indexof output "\n" 0)) 1) (- (str.len output) (+ (+ 0 (str.indexof output "\n" 0)) 1)))) (+ (+ 0 (str.indexof (str.substr output (+ (+ 0 (str.indexof output "\n" 0)) 1) (- (str.len output) (+ (+ 0 (str.indexof output "\n" 0)) 1))) "\n" 0)) 1))) "\n" 0)) 0)))
(assert (not (< (+ (+ 0 (str.indexof (str.substr (str.substr output (+ (+ 0 (str.indexof output "\n" 0)) 1) (- (str.len output) (+ (+ 0 (str.indexof output "\n" 0)) 1))) (+ (+ 0 (str.indexof (str.substr output (+ (+ 0 (str.indexof output "\n" 0)) 1) (- (str.len output) (+ (+ 0 (str.indexof output "\n" 0)) 1))) "\n" 0)) 1) (- (str.len (str.substr output (+ (+ 0 (str.indexof output "\n" 0)) 1) (- (str.len output) (+ (+ 0 (str.indexof output "\n" 0)) 1)))) (+ (+ 0 (str.indexof (str.substr output (+ (+ 0 (str.indexof output "\n" 0)) 1) (- (str.len output) (+ (+ 0 (str.indexof output "\n" 0)) 1))) "\n" 0)) 1))) "\n" 0)) 1) 0)))
(assert (not (< (str.len (str.substr (str.substr output (+ (+ 0 (str.indexof output "\n" 0)) 1) (- (str.len output) (+ (+ 0 (str.indexof output "\n" 0)) 1))) (+ (+ 0 (str.indexof (str.substr output (+ (+ 0 (str.indexof output "\n" 0)) 1) (- (str.len output) (+ (+ 0 (str.indexof output "\n" 0)) 1))) "\n" 0)) 1) (- (str.len (str.substr output (+ (+ 0 (str.indexof output "\n" 0)) 1) (- (str.len output) (+ (+ 0 (str.indexof output "\n" 0)) 1)))) (+ (+ 0 (str.indexof (str.substr output (+ (+ 0 (str.indexof output "\n" 0)) 1) (- (str.len output) (+ (+ 0 (str.indexof output "\n" 0)) 1))) "\n" 0)) 1)))) 0)))
(assert (not (< (str.len (str.substr (str.substr (str.substr output (+ (+ 0 (str.indexof output "\n" 0)) 1) (- (str.len output) (+ (+ 0 (str.indexof output "\n" 0)) 1))) (+ (+ 0 (str.indexof (str.substr output (+ (+ 0 (str.indexof output "\n" 0)) 1) (- (str.len output) (+ (+ 0 (str.indexof output "\n" 0)) 1))) "\n" 0)) 1) (- (str.len (str.substr output (+ (+ 0 (str.indexof output "\n" 0)) 1) (- (str.len output) (+ (+ 0 (str.indexof output "\n" 0)) 1)))) (+ (+ 0 (str.indexof (str.substr output (+ (+ 0 (str.indexof output "\n" 0)) 1) (- (str.len output) (+ (+ 0 (str.indexof output "\n" 0)) 1))) "\n" 0)) 1))) (+ (+ 0 (str.indexof (str.substr (str.substr output (+ (+ 0 (str.indexof output "\n" 0)) 1) (- (str.len output) (+ (+ 0 (str.indexof output "\n" 0)) 1))) (+ (+ 0 (str.indexof (str.substr output (+ (+ 0 (str.indexof output "\n" 0)) 1) (- (str.len output) (+ (+ 0 (str.indexof output "\n" 0)) 1))) "\n" 0)) 1) (- (str.len (str.substr output (+ (+ 0 (str.indexof output "\n" 0)) 1) (- (str.len output) (+ (+ 0 (str.indexof output "\n" 0)) 1)))) (+ (+ 0 (str.indexof (str.substr output (+ (+ 0 (str.indexof output "\n" 0)) 1) (- (str.len output) (+ (+ 0 (str.indexof output "\n" 0)) 1))) "\n" 0)) 1))) "\n" 0)) 1) (- (str.len (str.substr (str.substr output (+ (+ 0 (str.indexof output "\n" 0)) 1) (- (str.len output) (+ (+ 0 (str.indexof output "\n" 0)) 1))) (+ (+ 0 (str.indexof (str.substr output (+ (+ 0 (str.indexof output "\n" 0)) 1) (- (str.len output) (+ (+ 0 (str.indexof output "\n" 0)) 1))) "\n" 0)) 1) (- (str.len (str.substr output (+ (+ 0 (str.indexof output "\n" 0)) 1) (- (str.len output) (+ (+ 0 (str.indexof output "\n" 0)) 1)))) (+ (+ 0 (str.indexof (str.substr output (+ (+ 0 (str.indexof output "\n" 0)) 1) (- (str.len output) (+ (+ 0 (str.indexof output "\n" 0)) 1))) "\n" 0)) 1)))) (+ (+ 0 (str.indexof (str.substr (str.substr output (+ (+ 0 (str.indexof output "\n" 0)) 1) (- (str.len output) (+ (+ 0 (str.indexof output "\n" 0)) 1))) (+ (+ 0 (str.indexof (str.substr output (+ (+ 0 (str.indexof output "\n" 0)) 1) (- (str.len output) (+ (+ 0 (str.indexof output "\n" 0)) 1))) "\n" 0)) 1) (- (str.len (str.substr output (+ (+ 0 (str.indexof output "\n" 0)) 1) (- (str.len output) (+ (+ 0 (str.indexof output "\n" 0)) 1)))) (+ (+ 0 (str.indexof (str.substr output (+ (+ 0 (str.indexof output "\n" 0)) 1) (- (str.len output) (+ (+ 0 (str.indexof output "\n" 0)) 1))) "\n" 0)) 1))) "\n" 0)) 1)))) 0)))
(assert (= (+ 0 (str.indexof (str.substr (str.substr (str.substr output (+ (+ 0 (str.indexof output "\n" 0)) 1) (- (str.len output) (+ (+ 0 (str.indexof output "\n" 0)) 1))) (+ (+ 0 (str.indexof (str.substr output (+ (+ 0 (str.indexof output "\n" 0)) 1) (- (str.len output) (+ (+ 0 (str.indexof output "\n" 0)) 1))) "\n" 0)) 1) (- (str.len (str.substr output (+ (+ 0 (str.indexof output "\n" 0)) 1) (- (str.len output) (+ (+ 0 (str.indexof output "\n" 0)) 1)))) (+ (+ 0 (str.indexof (str.substr output (+ (+ 0 (str.indexof output "\n" 0)) 1) (- (str.len output) (+ (+ 0 (str.indexof output "\n" 0)) 1))) "\n" 0)) 1))) (+ (+ 0 (str.indexof (str.substr (str.substr output (+ (+ 0 (str.indexof output "\n" 0)) 1) (- (str.len output) (+ (+ 0 (str.indexof output "\n" 0)) 1))) (+ (+ 0 (str.indexof (str.substr output (+ (+ 0 (str.indexof output "\n" 0)) 1) (- (str.len output) (+ (+ 0 (str.indexof output "\n" 0)) 1))) "\n" 0)) 1) (- (str.len (str.substr output (+ (+ 0 (str.indexof output "\n" 0)) 1) (- (str.len output) (+ (+ 0 (str.indexof output "\n" 0)) 1)))) (+ (+ 0 (str.indexof (str.substr output (+ (+ 0 (str.indexof output "\n" 0)) 1) (- (str.len output) (+ (+ 0 (str.indexof output "\n" 0)) 1))) "\n" 0)) 1))) "\n" 0)) 1) (- (str.len (str.substr (str.substr output (+ (+ 0 (str.indexof output "\n" 0)) 1) (- (str.len output) (+ (+ 0 (str.indexof output "\n" 0)) 1))) (+ (+ 0 (str.indexof (str.substr output (+ (+ 0 (str.indexof output "\n" 0)) 1) (- (str.len output) (+ (+ 0 (str.indexof output "\n" 0)) 1))) "\n" 0)) 1) (- (str.len (str.substr output (+ (+ 0 (str.indexof output "\n" 0)) 1) (- (str.len output) (+ (+ 0 (str.indexof output "\n" 0)) 1)))) (+ (+ 0 (str.indexof (str.substr output (+ (+ 0 (str.indexof output "\n" 0)) 1) (- (str.len output) (+ (+ 0 (str.indexof output "\n" 0)) 1))) "\n" 0)) 1)))) (+ (+ 0 (str.indexof (str.substr (str.substr output (+ (+ 0 (str.indexof output "\n" 0)) 1) (- (str.len output) (+ (+ 0 (str.indexof output "\n" 0)) 1))) (+ (+ 0 (str.indexof (str.substr output (+ (+ 0 (str.indexof output "\n" 0)) 1) (- (str.len output) (+ (+ 0 (str.indexof output "\n" 0)) 1))) "\n" 0)) 1) (- (str.len (str.substr output (+ (+ 0 (str.indexof output "\n" 0)) 1) (- (str.len output) (+ (+ 0 (str.indexof output "\n" 0)) 1)))) (+ (+ 0 (str.indexof (str.substr output (+ (+ 0 (str.indexof output "\n" 0)) 1) (- (str.len output) (+ (+ 0 (str.indexof output "\n" 0)) 1))) "\n" 0)) 1))) "\n" 0)) 1))) "\n" 0)) (- 1)))
(assert (not (< (str.len (str.substr output 0 (- (+ 0 (str.indexof output "\n" 0)) 0))) 0)))
(assert (not (str.prefixof "brew cask install" (str.substr output 0 (- (+ 0 (str.indexof output "\n" 0)) 0)))))
(assert (not (< (str.len (str.substr (str.substr output (+ (+ 0 (str.indexof output "\n" 0)) 1) (- (str.len output) (+ (+ 0 (str.indexof output "\n" 0)) 1))) 0 (- (+ 0 (str.indexof (str.substr output (+ (+ 0 (str.indexof output "\n" 0)) 1) (- (str.len output) (+ (+ 0 (str.indexof output "\n" 0)) 1))) "\n" 0)) 0))) 0)))
(assert (str.prefixof "brew cask install" (str.substr (str.substr output (+ (+ 0 (str.indexof output "\n" 0)) 1) (- (str.len output) (+ (+ 0 (str.indexof output "\n" 0)) 1))) 0 (- (+ 0 (str.indexof (str.substr output (+ (+ 0 (str.indexof output "\n" 0)) 1) (- (str.len output) (+ (+ 0 (str.indexof output "\n" 0)) 1))) "\n" 0)) 0))))
(assert (not (< (str.len (str.substr (str.substr (str.substr output (+ (+ 0 (str.indexof output "\n" 0)) 1) (- (str.len output) (+ (+ 0 (str.indexof output "\n" 0)) 1))) (+ (+ 0 (str.indexof (str.substr output (+ (+ 0 (str.indexof output "\n" 0)) 1) (- (str.len output) (+ (+ 0 (str.indexof output "\n" 0)) 1))) "\n" 0)) 1) (- (str.len (str.substr output (+ (+ 0 (str.indexof output "\n" 0)) 1) (- (str.len output) (+ (+ 0 (str.indexof output "\n" 0)) 1)))) (+ (+ 0 (str.indexof (str.substr output (+ (+ 0 (str.indexof output "\n" 0)) 1) (- (str.len output) (+ (+ 0 (str.indexof output "\n" 0)) 1))) "\n" 0)) 1))) 0 (- (+ 0 (str.indexof (str.substr (str.substr output (+ (+ 0 (str.indexof output "\n" 0)) 1) (- (str.len output) (+ (+ 0 (str.indexof output "\n" 0)) 1))) (+ (+ 0 (str.indexof (str.substr output (+ (+ 0 (str.indexof output "\n" 0)) 1) (- (str.len output) (+ (+ 0 (str.indexof output "\n" 0)) 1))) "\n" 0)) 1) (- (str.len (str.substr output (+ (+ 0 (str.indexof output "\n" 0)) 1) (- (str.len output) (+ (+ 0 (str.indexof output "\n" 0)) 1)))) (+ (+ 0 (str.indexof (str.substr output (+ (+ 0 (str.indexof output "\n" 0)) 1) (- (str.len output) (+ (+ 0 (str.indexof output "\n" 0)) 1))) "\n" 0)) 1))) "\n" 0)) 0))) 0)))
(assert (str.prefixof "brew cask install" (str.substr (str.substr (str.substr output (+ (+ 0 (str.indexof output "\n" 0)) 1) (- (str.len output) (+ (+ 0 (str.indexof output "\n" 0)) 1))) (+ (+ 0 (str.indexof (str.substr output (+ (+ 0 (str.indexof output "\n" 0)) 1) (- (str.len output) (+ (+ 0 (str.indexof output "\n" 0)) 1))) "\n" 0)) 1) (- (str.len (str.substr output (+ (+ 0 (str.indexof output "\n" 0)) 1) (- (str.len output) (+ (+ 0 (str.indexof output "\n" 0)) 1)))) (+ (+ 0 (str.indexof (str.substr output (+ (+ 0 (str.indexof output "\n" 0)) 1) (- (str.len output) (+ (+ 0 (str.indexof output "\n" 0)) 1))) "\n" 0)) 1))) 0 (- (+ 0 (str.indexof (str.substr (str.substr output (+ (+ 0 (str.indexof output "\n" 0)) 1) (- (str.len output) (+ (+ 0 (str.indexof output "\n" 0)) 1))) (+ (+ 0 (str.indexof (str.substr output (+ (+ 0 (str.indexof output "\n" 0)) 1) (- (str.len output) (+ (+ 0 (str.indexof output "\n" 0)) 1))) "\n" 0)) 1) (- (str.len (str.substr output (+ (+ 0 (str.indexof output "\n" 0)) 1) (- (str.len output) (+ (+ 0 (str.indexof output "\n" 0)) 1)))) (+ (+ 0 (str.indexof (str.substr output (+ (+ 0 (str.indexof output "\n" 0)) 1) (- (str.len output) (+ (+ 0 (str.indexof output "\n" 0)) 1))) "\n" 0)) 1))) "\n" 0)) 0))))
(assert (not (< (str.len (str.substr (str.substr (str.substr output (+ (+ 0 (str.indexof output "\n" 0)) 1) (- (str.len output) (+ (+ 0 (str.indexof output "\n" 0)) 1))) (+ (+ 0 (str.indexof (str.substr output (+ (+ 0 (str.indexof output "\n" 0)) 1) (- (str.len output) (+ (+ 0 (str.indexof output "\n" 0)) 1))) "\n" 0)) 1) (- (str.len (str.substr output (+ (+ 0 (str.indexof output "\n" 0)) 1) (- (str.len output) (+ (+ 0 (str.indexof output "\n" 0)) 1)))) (+ (+ 0 (str.indexof (str.substr output (+ (+ 0 (str.indexof output "\n" 0)) 1) (- (str.len output) (+ (+ 0 (str.indexof output "\n" 0)) 1))) "\n" 0)) 1))) (+ (+ 0 (str.indexof (str.substr (str.substr output (+ (+ 0 (str.indexof output "\n" 0)) 1) (- (str.len output) (+ (+ 0 (str.indexof output "\n" 0)) 1))) (+ (+ 0 (str.indexof (str.substr output (+ (+ 0 (str.indexof output "\n" 0)) 1) (- (str.len output) (+ (+ 0 (str.indexof output "\n" 0)) 1))) "\n" 0)) 1) (- (str.len (str.substr output (+ (+ 0 (str.indexof output "\n" 0)) 1) (- (str.len output) (+ (+ 0 (str.indexof output "\n" 0)) 1)))) (+ (+ 0 (str.indexof (str.substr output (+ (+ 0 (str.indexof output "\n" 0)) 1) (- (str.len output) (+ (+ 0 (str.indexof output "\n" 0)) 1))) "\n" 0)) 1))) "\n" 0)) 1) (- (str.len (str.substr (str.substr output (+ (+ 0 (str.indexof output "\n" 0)) 1) (- (str.len output) (+ (+ 0 (str.indexof output "\n" 0)) 1))) (+ (+ 0 (str.indexof (str.substr output (+ (+ 0 (str.indexof output "\n" 0)) 1) (- (str.len output) (+ (+ 0 (str.indexof output "\n" 0)) 1))) "\n" 0)) 1) (- (str.len (str.substr output (+ (+ 0 (str.indexof output "\n" 0)) 1) (- (str.len output) (+ (+ 0 (str.indexof output "\n" 0)) 1)))) (+ (+ 0 (str.indexof (str.substr output (+ (+ 0 (str.indexof output "\n" 0)) 1) (- (str.len output) (+ (+ 0 (str.indexof output "\n" 0)) 1))) "\n" 0)) 1)))) (+ (+ 0 (str.indexof (str.substr (str.substr output (+ (+ 0 (str.indexof output "\n" 0)) 1) (- (str.len output) (+ (+ 0 (str.indexof output "\n" 0)) 1))) (+ (+ 0 (str.indexof (str.substr output (+ (+ 0 (str.indexof output "\n" 0)) 1) (- (str.len output) (+ (+ 0 (str.indexof output "\n" 0)) 1))) "\n" 0)) 1) (- (str.len (str.substr output (+ (+ 0 (str.indexof output "\n" 0)) 1) (- (str.len output) (+ (+ 0 (str.indexof output "\n" 0)) 1)))) (+ (+ 0 (str.indexof (str.substr output (+ (+ 0 (str.indexof output "\n" 0)) 1) (- (str.len output) (+ (+ 0 (str.indexof output "\n" 0)) 1))) "\n" 0)) 1))) "\n" 0)) 1)))) 0)))
(assert (str.prefixof "brew cask install" (str.substr (str.substr (str.substr output (+ (+ 0 (str.indexof output "\n" 0)) 1) (- (str.len output) (+ (+ 0 (str.indexof output "\n" 0)) 1))) (+ (+ 0 (str.indexof (str.substr output (+ (+ 0 (str.indexof output "\n" 0)) 1) (- (str.len output) (+ (+ 0 (str.indexof output "\n" 0)) 1))) "\n" 0)) 1) (- (str.len (str.substr output (+ (+ 0 (str.indexof output "\n" 0)) 1) (- (str.len output) (+ (+ 0 (str.indexof output "\n" 0)) 1)))) (+ (+ 0 (str.indexof (str.substr output (+ (+ 0 (str.indexof output "\n" 0)) 1) (- (str.len output) (+ (+ 0 (str.indexof output "\n" 0)) 1))) "\n" 0)) 1))) (+ (+ 0 (str.indexof (str.substr (str.substr output (+ (+ 0 (str.indexof output "\n" 0)) 1) (- (str.len output) (+ (+ 0 (str.indexof output "\n" 0)) 1))) (+ (+ 0 (str.indexof (str.substr output (+ (+ 0 (str.indexof output "\n" 0)) 1) (- (str.len output) (+ (+ 0 (str.indexof output "\n" 0)) 1))) "\n" 0)) 1) (- (str.len (str.substr output (+ (+ 0 (str.indexof output "\n" 0)) 1) (- (str.len output) (+ (+ 0 (str.indexof output "\n" 0)) 1)))) (+ (+ 0 (str.indexof (str.substr output (+ (+ 0 (str.indexof output "\n" 0)) 1) (- (str.len output) (+ (+ 0 (str.indexof output "\n" 0)) 1))) "\n" 0)) 1))) "\n" 0)) 1) (- (str.len (str.substr (str.substr output (+ (+ 0 (str.indexof output "\n" 0)) 1) (- (str.len output) (+ (+ 0 (str.indexof output "\n" 0)) 1))) (+ (+ 0 (str.indexof (str.substr output (+ (+ 0 (str.indexof output "\n" 0)) 1) (- (str.len output) (+ (+ 0 (str.indexof output "\n" 0)) 1))) "\n" 0)) 1) (- (str.len (str.substr output (+ (+ 0 (str.indexof output "\n" 0)) 1) (- (str.len output) (+ (+ 0 (str.indexof output "\n" 0)) 1)))) (+ (+ 0 (str.indexof (str.substr output (+ (+ 0 (str.indexof output "\n" 0)) 1) (- (str.len output) (+ (+ 0 (str.indexof output "\n" 0)) 1))) "\n" 0)) 1)))) (+ (+ 0 (str.indexof (str.substr (str.substr output (+ (+ 0 (str.indexof output "\n" 0)) 1) (- (str.len output) (+ (+ 0 (str.indexof output "\n" 0)) 1))) (+ (+ 0 (str.indexof (str.substr output (+ (+ 0 (str.indexof output "\n" 0)) 1) (- (str.len output) (+ (+ 0 (str.indexof output "\n" 0)) 1))) "\n" 0)) 1) (- (str.len (str.substr output (+ (+ 0 (str.indexof output "\n" 0)) 1) (- (str.len output) (+ (+ 0 (str.indexof output "\n" 0)) 1)))) (+ (+ 0 (str.indexof (str.substr output (+ (+ 0 (str.indexof output "\n" 0)) 1) (- (str.len output) (+ (+ 0 (str.indexof output "\n" 0)) 1))) "\n" 0)) 1))) "\n" 0)) 1)))))
(check-sat)
(get-value (output))
